p cnf 21 840
1 2 3 4 5 6 0
-1 2 3 4 5 6 0
1 -2 -3 4 5 6 0
1 2 -3 4 5 6 0
-1 -2 3 4 5 6 0
-1 -2 -3 4 5 6 0
-1 2 3 -4 -5 -6 0
-1 2 3 -4 5 -6 0
1 2 3 4 -5 -6 0
1 2 3 -4 -5 -6 0
-1 2 3 4 5 -6 0
1 2 3 4 5 -6 0
1 2 -3 4 -5 6 0
1 -2 -3 4 -5 6 0
1 2 -3 -4 -5 -6 0
1 2 -3 4 -5 -6 0
1 -2 -3 -4 -5 6 0
1 -2 -3 -4 -5 -6 0
-1 -2 -3 -4 -5 -6 0
-1 -2 -3 -4 -5 6 0
-1 -2 3 -4 5 -6 0
-1 -2 3 -4 -5 -6 0
-1 -2 -3 -4 5 6 0
-1 -2 3 -4 5 6 0
1 2 3 7 8 9 0
-1 2 3 7 8 9 0
1 -2 -3 7 8 9 0
1 2 -3 7 8 9 0
-1 -2 3 7 8 9 0
-1 -2 -3 7 8 9 0
-1 2 3 -7 -8 -9 0
-1 2 3 -7 8 -9 0
1 2 3 7 -8 -9 0
1 2 3 -7 -8 -9 0
-1 2 3 7 8 -9 0
1 2 3 7 8 -9 0
1 2 -3 7 -8 9 0
1 -2 -3 7 -8 9 0
1 2 -3 -7 -8 -9 0
1 2 -3 7 -8 -9 0
1 -2 -3 -7 -8 9 0
1 -2 -3 -7 -8 -9 0
-1 -2 -3 -7 -8 -9 0
-1 -2 -3 -7 -8 9 0
-1 -2 3 -7 8 -9 0
-1 -2 3 -7 -8 -9 0
-1 -2 -3 -7 8 9 0
-1 -2 3 -7 8 9 0
1 2 3 11 12 13 0
-1 2 3 11 12 13 0
1 -2 -3 11 12 13 0
1 2 -3 11 12 13 0
-1 -2 3 11 12 13 0
-1 -2 -3 11 12 13 0
-1 2 3 -11 -12 -13 0
-1 2 3 -11 12 -13 0
1 2 3 11 -12 -13 0
1 2 3 -11 -12 -13 0
-1 2 3 11 12 -13 0
1 2 3 11 12 -13 0
1 2 -3 11 -12 13 0
1 -2 -3 11 -12 13 0
1 2 -3 -11 -12 -13 0
1 2 -3 11 -12 -13 0
1 -2 -3 -11 -12 13 0
1 -2 -3 -11 -12 -13 0
-1 -2 -3 -11 -12 -13 0
-1 -2 -3 -11 -12 13 0
-1 -2 3 -11 12 -13 0
-1 -2 3 -11 -12 -13 0
-1 -2 -3 -11 12 13 0
-1 -2 3 -11 12 13 0
1 2 3 16 17 18 0
-1 2 3 16 17 18 0
1 -2 -3 16 17 18 0
1 2 -3 16 17 18 0
-1 -2 3 16 17 18 0
-1 -2 -3 16 17 18 0
-1 2 3 -16 -17 -18 0
-1 2 3 -16 17 -18 0
1 2 3 16 -17 -18 0
1 2 3 -16 -17 -18 0
-1 2 3 16 17 -18 0
1 2 3 16 17 -18 0
1 2 -3 16 -17 18 0
1 -2 -3 16 -17 18 0
1 2 -3 -16 -17 -18 0
1 2 -3 16 -17 -18 0
1 -2 -3 -16 -17 18 0
1 -2 -3 -16 -17 -18 0
-1 -2 -3 -16 -17 -18 0
-1 -2 -3 -16 -17 18 0
-1 -2 3 -16 17 -18 0
-1 -2 3 -16 -17 -18 0
-1 -2 -3 -16 17 18 0
-1 -2 3 -16 17 18 0
1 4 5 7 8 10 0
-1 4 5 7 8 10 0
1 -4 -5 7 8 10 0
1 4 -5 7 8 10 0
-1 -4 5 7 8 10 0
-1 -4 -5 7 8 10 0
-1 4 5 -7 -8 -10 0
-1 4 5 -7 8 -10 0
1 4 5 7 -8 -10 0
1 4 5 -7 -8 -10 0
-1 4 5 7 8 -10 0
1 4 5 7 8 -10 0
1 4 -5 7 -8 10 0
1 -4 -5 7 -8 10 0
1 4 -5 -7 -8 -10 0
1 4 -5 7 -8 -10 0
1 -4 -5 -7 -8 10 0
1 -4 -5 -7 -8 -10 0
-1 -4 -5 -7 -8 -10 0
-1 -4 -5 -7 -8 10 0
-1 -4 5 -7 8 -10 0
-1 -4 5 -7 -8 -10 0
-1 -4 -5 -7 8 10 0
-1 -4 5 -7 8 10 0
1 4 5 11 12 14 0
-1 4 5 11 12 14 0
1 -4 -5 11 12 14 0
1 4 -5 11 12 14 0
-1 -4 5 11 12 14 0
-1 -4 -5 11 12 14 0
-1 4 5 -11 -12 -14 0
-1 4 5 -11 12 -14 0
1 4 5 11 -12 -14 0
1 4 5 -11 -12 -14 0
-1 4 5 11 12 -14 0
1 4 5 11 12 -14 0
1 4 -5 11 -12 14 0
1 -4 -5 11 -12 14 0
1 4 -5 -11 -12 -14 0
1 4 -5 11 -12 -14 0
1 -4 -5 -11 -12 14 0
1 -4 -5 -11 -12 -14 0
-1 -4 -5 -11 -12 -14 0
-1 -4 -5 -11 -12 14 0
-1 -4 5 -11 12 -14 0
-1 -4 5 -11 -12 -14 0
-1 -4 -5 -11 12 14 0
-1 -4 5 -11 12 14 0
1 4 5 16 17 19 0
-1 4 5 16 17 19 0
1 -4 -5 16 17 19 0
1 4 -5 16 17 19 0
-1 -4 5 16 17 19 0
-1 -4 -5 16 17 19 0
-1 4 5 -16 -17 -19 0
-1 4 5 -16 17 -19 0
1 4 5 16 -17 -19 0
1 4 5 -16 -17 -19 0
-1 4 5 16 17 -19 0
1 4 5 16 17 -19 0
1 4 -5 16 -17 19 0
1 -4 -5 16 -17 19 0
1 4 -5 -16 -17 -19 0
1 4 -5 16 -17 -19 0
1 -4 -5 -16 -17 19 0
1 -4 -5 -16 -17 -19 0
-1 -4 -5 -16 -17 -19 0
-1 -4 -5 -16 -17 19 0
-1 -4 5 -16 17 -19 0
-1 -4 5 -16 -17 -19 0
-1 -4 -5 -16 17 19 0
-1 -4 5 -16 17 19 0
1 7 8 11 12 15 0
-1 7 8 11 12 15 0
1 -7 -8 11 12 15 0
1 7 -8 11 12 15 0
-1 -7 8 11 12 15 0
-1 -7 -8 11 12 15 0
-1 7 8 -11 -12 -15 0
-1 7 8 -11 12 -15 0
1 7 8 11 -12 -15 0
1 7 8 -11 -12 -15 0
-1 7 8 11 12 -15 0
1 7 8 11 12 -15 0
1 7 -8 11 -12 15 0
1 -7 -8 11 -12 15 0
1 7 -8 -11 -12 -15 0
1 7 -8 11 -12 -15 0
1 -7 -8 -11 -12 15 0
1 -7 -8 -11 -12 -15 0
-1 -7 -8 -11 -12 -15 0
-1 -7 -8 -11 -12 15 0
-1 -7 8 -11 12 -15 0
-1 -7 8 -11 -12 -15 0
-1 -7 -8 -11 12 15 0
-1 -7 8 -11 12 15 0
1 7 8 16 17 20 0
-1 7 8 16 17 20 0
1 -7 -8 16 17 20 0
1 7 -8 16 17 20 0
-1 -7 8 16 17 20 0
-1 -7 -8 16 17 20 0
-1 7 8 -16 -17 -20 0
-1 7 8 -16 17 -20 0
1 7 8 16 -17 -20 0
1 7 8 -16 -17 -20 0
-1 7 8 16 17 -20 0
1 7 8 16 17 -20 0
1 7 -8 16 -17 20 0
1 -7 -8 16 -17 20 0
1 7 -8 -16 -17 -20 0
1 7 -8 16 -17 -20 0
1 -7 -8 -16 -17 20 0
1 -7 -8 -16 -17 -20 0
-1 -7 -8 -16 -17 -20 0
-1 -7 -8 -16 -17 20 0
-1 -7 8 -16 17 -20 0
-1 -7 8 -16 -17 -20 0
-1 -7 -8 -16 17 20 0
-1 -7 8 -16 17 20 0
1 11 12 16 17 21 0
-1 11 12 16 17 21 0
1 -11 -12 16 17 21 0
1 11 -12 16 17 21 0
-1 -11 12 16 17 21 0
-1 -11 -12 16 17 21 0
-1 11 12 -16 -17 -21 0
-1 11 12 -16 17 -21 0
1 11 12 16 -17 -21 0
1 11 12 -16 -17 -21 0
-1 11 12 16 17 -21 0
1 11 12 16 17 -21 0
1 11 -12 16 -17 21 0
1 -11 -12 16 -17 21 0
1 11 -12 -16 -17 -21 0
1 11 -12 16 -17 -21 0
1 -11 -12 -16 -17 21 0
1 -11 -12 -16 -17 -21 0
-1 -11 -12 -16 -17 -21 0
-1 -11 -12 -16 -17 21 0
-1 -11 12 -16 17 -21 0
-1 -11 12 -16 -17 -21 0
-1 -11 -12 -16 17 21 0
-1 -11 12 -16 17 21 0
2 4 6 7 9 10 0
-2 4 6 7 9 10 0
2 -4 -6 7 9 10 0
2 4 -6 7 9 10 0
-2 -4 6 7 9 10 0
-2 -4 -6 7 9 10 0
-2 4 6 -7 -9 -10 0
-2 4 6 -7 9 -10 0
2 4 6 7 -9 -10 0
2 4 6 -7 -9 -10 0
-2 4 6 7 9 -10 0
2 4 6 7 9 -10 0
2 4 -6 7 -9 10 0
2 -4 -6 7 -9 10 0
2 4 -6 -7 -9 -10 0
2 4 -6 7 -9 -10 0
2 -4 -6 -7 -9 10 0
2 -4 -6 -7 -9 -10 0
-2 -4 -6 -7 -9 -10 0
-2 -4 -6 -7 -9 10 0
-2 -4 6 -7 9 -10 0
-2 -4 6 -7 -9 -10 0
-2 -4 -6 -7 9 10 0
-2 -4 6 -7 9 10 0
2 4 6 11 13 14 0
-2 4 6 11 13 14 0
2 -4 -6 11 13 14 0
2 4 -6 11 13 14 0
-2 -4 6 11 13 14 0
-2 -4 -6 11 13 14 0
-2 4 6 -11 -13 -14 0
-2 4 6 -11 13 -14 0
2 4 6 11 -13 -14 0
2 4 6 -11 -13 -14 0
-2 4 6 11 13 -14 0
2 4 6 11 13 -14 0
2 4 -6 11 -13 14 0
2 -4 -6 11 -13 14 0
2 4 -6 -11 -13 -14 0
2 4 -6 11 -13 -14 0
2 -4 -6 -11 -13 14 0
2 -4 -6 -11 -13 -14 0
-2 -4 -6 -11 -13 -14 0
-2 -4 -6 -11 -13 14 0
-2 -4 6 -11 13 -14 0
-2 -4 6 -11 -13 -14 0
-2 -4 -6 -11 13 14 0
-2 -4 6 -11 13 14 0
2 4 6 16 18 19 0
-2 4 6 16 18 19 0
2 -4 -6 16 18 19 0
2 4 -6 16 18 19 0
-2 -4 6 16 18 19 0
-2 -4 -6 16 18 19 0
-2 4 6 -16 -18 -19 0
-2 4 6 -16 18 -19 0
2 4 6 16 -18 -19 0
2 4 6 -16 -18 -19 0
-2 4 6 16 18 -19 0
2 4 6 16 18 -19 0
2 4 -6 16 -18 19 0
2 -4 -6 16 -18 19 0
2 4 -6 -16 -18 -19 0
2 4 -6 16 -18 -19 0
2 -4 -6 -16 -18 19 0
2 -4 -6 -16 -18 -19 0
-2 -4 -6 -16 -18 -19 0
-2 -4 -6 -16 -18 19 0
-2 -4 6 -16 18 -19 0
-2 -4 6 -16 -18 -19 0
-2 -4 -6 -16 18 19 0
-2 -4 6 -16 18 19 0
2 7 9 11 13 15 0
-2 7 9 11 13 15 0
2 -7 -9 11 13 15 0
2 7 -9 11 13 15 0
-2 -7 9 11 13 15 0
-2 -7 -9 11 13 15 0
-2 7 9 -11 -13 -15 0
-2 7 9 -11 13 -15 0
2 7 9 11 -13 -15 0
2 7 9 -11 -13 -15 0
-2 7 9 11 13 -15 0
2 7 9 11 13 -15 0
2 7 -9 11 -13 15 0
2 -7 -9 11 -13 15 0
2 7 -9 -11 -13 -15 0
2 7 -9 11 -13 -15 0
2 -7 -9 -11 -13 15 0
2 -7 -9 -11 -13 -15 0
-2 -7 -9 -11 -13 -15 0
-2 -7 -9 -11 -13 15 0
-2 -7 9 -11 13 -15 0
-2 -7 9 -11 -13 -15 0
-2 -7 -9 -11 13 15 0
-2 -7 9 -11 13 15 0
2 7 9 16 18 20 0
-2 7 9 16 18 20 0
2 -7 -9 16 18 20 0
2 7 -9 16 18 20 0
-2 -7 9 16 18 20 0
-2 -7 -9 16 18 20 0
-2 7 9 -16 -18 -20 0
-2 7 9 -16 18 -20 0
2 7 9 16 -18 -20 0
2 7 9 -16 -18 -20 0
-2 7 9 16 18 -20 0
2 7 9 16 18 -20 0
2 7 -9 16 -18 20 0
2 -7 -9 16 -18 20 0
2 7 -9 -16 -18 -20 0
2 7 -9 16 -18 -20 0
2 -7 -9 -16 -18 20 0
2 -7 -9 -16 -18 -20 0
-2 -7 -9 -16 -18 -20 0
-2 -7 -9 -16 -18 20 0
-2 -7 9 -16 18 -20 0
-2 -7 9 -16 -18 -20 0
-2 -7 -9 -16 18 20 0
-2 -7 9 -16 18 20 0
2 11 13 16 18 21 0
-2 11 13 16 18 21 0
2 -11 -13 16 18 21 0
2 11 -13 16 18 21 0
-2 -11 13 16 18 21 0
-2 -11 -13 16 18 21 0
-2 11 13 -16 -18 -21 0
-2 11 13 -16 18 -21 0
2 11 13 16 -18 -21 0
2 11 13 -16 -18 -21 0
-2 11 13 16 18 -21 0
2 11 13 16 18 -21 0
2 11 -13 16 -18 21 0
2 -11 -13 16 -18 21 0
2 11 -13 -16 -18 -21 0
2 11 -13 16 -18 -21 0
2 -11 -13 -16 -18 21 0
2 -11 -13 -16 -18 -21 0
-2 -11 -13 -16 -18 -21 0
-2 -11 -13 -16 -18 21 0
-2 -11 13 -16 18 -21 0
-2 -11 13 -16 -18 -21 0
-2 -11 -13 -16 18 21 0
-2 -11 13 -16 18 21 0
4 7 10 11 14 15 0
-4 7 10 11 14 15 0
4 -7 -10 11 14 15 0
4 7 -10 11 14 15 0
-4 -7 10 11 14 15 0
-4 -7 -10 11 14 15 0
-4 7 10 -11 -14 -15 0
-4 7 10 -11 14 -15 0
4 7 10 11 -14 -15 0
4 7 10 -11 -14 -15 0
-4 7 10 11 14 -15 0
4 7 10 11 14 -15 0
4 7 -10 11 -14 15 0
4 -7 -10 11 -14 15 0
4 7 -10 -11 -14 -15 0
4 7 -10 11 -14 -15 0
4 -7 -10 -11 -14 15 0
4 -7 -10 -11 -14 -15 0
-4 -7 -10 -11 -14 -15 0
-4 -7 -10 -11 -14 15 0
-4 -7 10 -11 14 -15 0
-4 -7 10 -11 -14 -15 0
-4 -7 -10 -11 14 15 0
-4 -7 10 -11 14 15 0
4 7 10 16 19 20 0
-4 7 10 16 19 20 0
4 -7 -10 16 19 20 0
4 7 -10 16 19 20 0
-4 -7 10 16 19 20 0
-4 -7 -10 16 19 20 0
-4 7 10 -16 -19 -20 0
-4 7 10 -16 19 -20 0
4 7 10 16 -19 -20 0
4 7 10 -16 -19 -20 0
-4 7 10 16 19 -20 0
4 7 10 16 19 -20 0
4 7 -10 16 -19 20 0
4 -7 -10 16 -19 20 0
4 7 -10 -16 -19 -20 0
4 7 -10 16 -19 -20 0
4 -7 -10 -16 -19 20 0
4 -7 -10 -16 -19 -20 0
-4 -7 -10 -16 -19 -20 0
-4 -7 -10 -16 -19 20 0
-4 -7 10 -16 19 -20 0
-4 -7 10 -16 -19 -20 0
-4 -7 -10 -16 19 20 0
-4 -7 10 -16 19 20 0
4 11 14 16 19 21 0
-4 11 14 16 19 21 0
4 -11 -14 16 19 21 0
4 11 -14 16 19 21 0
-4 -11 14 16 19 21 0
-4 -11 -14 16 19 21 0
-4 11 14 -16 -19 -21 0
-4 11 14 -16 19 -21 0
4 11 14 16 -19 -21 0
4 11 14 -16 -19 -21 0
-4 11 14 16 19 -21 0
4 11 14 16 19 -21 0
4 11 -14 16 -19 21 0
4 -11 -14 16 -19 21 0
4 11 -14 -16 -19 -21 0
4 11 -14 16 -19 -21 0
4 -11 -14 -16 -19 21 0
4 -11 -14 -16 -19 -21 0
-4 -11 -14 -16 -19 -21 0
-4 -11 -14 -16 -19 21 0
-4 -11 14 -16 19 -21 0
-4 -11 14 -16 -19 -21 0
-4 -11 -14 -16 19 21 0
-4 -11 14 -16 19 21 0
7 11 15 16 20 21 0
-7 11 15 16 20 21 0
7 -11 -15 16 20 21 0
7 11 -15 16 20 21 0
-7 -11 15 16 20 21 0
-7 -11 -15 16 20 21 0
-7 11 15 -16 -20 -21 0
-7 11 15 -16 20 -21 0
7 11 15 16 -20 -21 0
7 11 15 -16 -20 -21 0
-7 11 15 16 20 -21 0
7 11 15 16 20 -21 0
7 11 -15 16 -20 21 0
7 -11 -15 16 -20 21 0
7 11 -15 -16 -20 -21 0
7 11 -15 16 -20 -21 0
7 -11 -15 -16 -20 21 0
7 -11 -15 -16 -20 -21 0
-7 -11 -15 -16 -20 -21 0
-7 -11 -15 -16 -20 21 0
-7 -11 15 -16 20 -21 0
-7 -11 15 -16 -20 -21 0
-7 -11 -15 -16 20 21 0
-7 -11 15 -16 20 21 0
3 5 6 8 9 10 0
-3 5 6 8 9 10 0
3 -5 -6 8 9 10 0
3 5 -6 8 9 10 0
-3 -5 6 8 9 10 0
-3 -5 -6 8 9 10 0
-3 5 6 -8 -9 -10 0
-3 5 6 -8 9 -10 0
3 5 6 8 -9 -10 0
3 5 6 -8 -9 -10 0
-3 5 6 8 9 -10 0
3 5 6 8 9 -10 0
3 5 -6 8 -9 10 0
3 -5 -6 8 -9 10 0
3 5 -6 -8 -9 -10 0
3 5 -6 8 -9 -10 0
3 -5 -6 -8 -9 10 0
3 -5 -6 -8 -9 -10 0
-3 -5 -6 -8 -9 -10 0
-3 -5 -6 -8 -9 10 0
-3 -5 6 -8 9 -10 0
-3 -5 6 -8 -9 -10 0
-3 -5 -6 -8 9 10 0
-3 -5 6 -8 9 10 0
3 5 6 12 13 14 0
-3 5 6 12 13 14 0
3 -5 -6 12 13 14 0
3 5 -6 12 13 14 0
-3 -5 6 12 13 14 0
-3 -5 -6 12 13 14 0
-3 5 6 -12 -13 -14 0
-3 5 6 -12 13 -14 0
3 5 6 12 -13 -14 0
3 5 6 -12 -13 -14 0
-3 5 6 12 13 -14 0
3 5 6 12 13 -14 0
3 5 -6 12 -13 14 0
3 -5 -6 12 -13 14 0
3 5 -6 -12 -13 -14 0
3 5 -6 12 -13 -14 0
3 -5 -6 -12 -13 14 0
3 -5 -6 -12 -13 -14 0
-3 -5 -6 -12 -13 -14 0
-3 -5 -6 -12 -13 14 0
-3 -5 6 -12 13 -14 0
-3 -5 6 -12 -13 -14 0
-3 -5 -6 -12 13 14 0
-3 -5 6 -12 13 14 0
3 5 6 17 18 19 0
-3 5 6 17 18 19 0
3 -5 -6 17 18 19 0
3 5 -6 17 18 19 0
-3 -5 6 17 18 19 0
-3 -5 -6 17 18 19 0
-3 5 6 -17 -18 -19 0
-3 5 6 -17 18 -19 0
3 5 6 17 -18 -19 0
3 5 6 -17 -18 -19 0
-3 5 6 17 18 -19 0
3 5 6 17 18 -19 0
3 5 -6 17 -18 19 0
3 -5 -6 17 -18 19 0
3 5 -6 -17 -18 -19 0
3 5 -6 17 -18 -19 0
3 -5 -6 -17 -18 19 0
3 -5 -6 -17 -18 -19 0
-3 -5 -6 -17 -18 -19 0
-3 -5 -6 -17 -18 19 0
-3 -5 6 -17 18 -19 0
-3 -5 6 -17 -18 -19 0
-3 -5 -6 -17 18 19 0
-3 -5 6 -17 18 19 0
3 8 9 12 13 15 0
-3 8 9 12 13 15 0
3 -8 -9 12 13 15 0
3 8 -9 12 13 15 0
-3 -8 9 12 13 15 0
-3 -8 -9 12 13 15 0
-3 8 9 -12 -13 -15 0
-3 8 9 -12 13 -15 0
3 8 9 12 -13 -15 0
3 8 9 -12 -13 -15 0
-3 8 9 12 13 -15 0
3 8 9 12 13 -15 0
3 8 -9 12 -13 15 0
3 -8 -9 12 -13 15 0
3 8 -9 -12 -13 -15 0
3 8 -9 12 -13 -15 0
3 -8 -9 -12 -13 15 0
3 -8 -9 -12 -13 -15 0
-3 -8 -9 -12 -13 -15 0
-3 -8 -9 -12 -13 15 0
-3 -8 9 -12 13 -15 0
-3 -8 9 -12 -13 -15 0
-3 -8 -9 -12 13 15 0
-3 -8 9 -12 13 15 0
3 8 9 17 18 20 0
-3 8 9 17 18 20 0
3 -8 -9 17 18 20 0
3 8 -9 17 18 20 0
-3 -8 9 17 18 20 0
-3 -8 -9 17 18 20 0
-3 8 9 -17 -18 -20 0
-3 8 9 -17 18 -20 0
3 8 9 17 -18 -20 0
3 8 9 -17 -18 -20 0
-3 8 9 17 18 -20 0
3 8 9 17 18 -20 0
3 8 -9 17 -18 20 0
3 -8 -9 17 -18 20 0
3 8 -9 -17 -18 -20 0
3 8 -9 17 -18 -20 0
3 -8 -9 -17 -18 20 0
3 -8 -9 -17 -18 -20 0
-3 -8 -9 -17 -18 -20 0
-3 -8 -9 -17 -18 20 0
-3 -8 9 -17 18 -20 0
-3 -8 9 -17 -18 -20 0
-3 -8 -9 -17 18 20 0
-3 -8 9 -17 18 20 0
3 12 13 17 18 21 0
-3 12 13 17 18 21 0
3 -12 -13 17 18 21 0
3 12 -13 17 18 21 0
-3 -12 13 17 18 21 0
-3 -12 -13 17 18 21 0
-3 12 13 -17 -18 -21 0
-3 12 13 -17 18 -21 0
3 12 13 17 -18 -21 0
3 12 13 -17 -18 -21 0
-3 12 13 17 18 -21 0
3 12 13 17 18 -21 0
3 12 -13 17 -18 21 0
3 -12 -13 17 -18 21 0
3 12 -13 -17 -18 -21 0
3 12 -13 17 -18 -21 0
3 -12 -13 -17 -18 21 0
3 -12 -13 -17 -18 -21 0
-3 -12 -13 -17 -18 -21 0
-3 -12 -13 -17 -18 21 0
-3 -12 13 -17 18 -21 0
-3 -12 13 -17 -18 -21 0
-3 -12 -13 -17 18 21 0
-3 -12 13 -17 18 21 0
5 8 10 12 14 15 0
-5 8 10 12 14 15 0
5 -8 -10 12 14 15 0
5 8 -10 12 14 15 0
-5 -8 10 12 14 15 0
-5 -8 -10 12 14 15 0
-5 8 10 -12 -14 -15 0
-5 8 10 -12 14 -15 0
5 8 10 12 -14 -15 0
5 8 10 -12 -14 -15 0
-5 8 10 12 14 -15 0
5 8 10 12 14 -15 0
5 8 -10 12 -14 15 0
5 -8 -10 12 -14 15 0
5 8 -10 -12 -14 -15 0
5 8 -10 12 -14 -15 0
5 -8 -10 -12 -14 15 0
5 -8 -10 -12 -14 -15 0
-5 -8 -10 -12 -14 -15 0
-5 -8 -10 -12 -14 15 0
-5 -8 10 -12 14 -15 0
-5 -8 10 -12 -14 -15 0
-5 -8 -10 -12 14 15 0
-5 -8 10 -12 14 15 0
5 8 10 17 19 20 0
-5 8 10 17 19 20 0
5 -8 -10 17 19 20 0
5 8 -10 17 19 20 0
-5 -8 10 17 19 20 0
-5 -8 -10 17 19 20 0
-5 8 10 -17 -19 -20 0
-5 8 10 -17 19 -20 0
5 8 10 17 -19 -20 0
5 8 10 -17 -19 -20 0
-5 8 10 17 19 -20 0
5 8 10 17 19 -20 0
5 8 -10 17 -19 20 0
5 -8 -10 17 -19 20 0
5 8 -10 -17 -19 -20 0
5 8 -10 17 -19 -20 0
5 -8 -10 -17 -19 20 0
5 -8 -10 -17 -19 -20 0
-5 -8 -10 -17 -19 -20 0
-5 -8 -10 -17 -19 20 0
-5 -8 10 -17 19 -20 0
-5 -8 10 -17 -19 -20 0
-5 -8 -10 -17 19 20 0
-5 -8 10 -17 19 20 0
5 12 14 17 19 21 0
-5 12 14 17 19 21 0
5 -12 -14 17 19 21 0
5 12 -14 17 19 21 0
-5 -12 14 17 19 21 0
-5 -12 -14 17 19 21 0
-5 12 14 -17 -19 -21 0
-5 12 14 -17 19 -21 0
5 12 14 17 -19 -21 0
5 12 14 -17 -19 -21 0
-5 12 14 17 19 -21 0
5 12 14 17 19 -21 0
5 12 -14 17 -19 21 0
5 -12 -14 17 -19 21 0
5 12 -14 -17 -19 -21 0
5 12 -14 17 -19 -21 0
5 -12 -14 -17 -19 21 0
5 -12 -14 -17 -19 -21 0
-5 -12 -14 -17 -19 -21 0
-5 -12 -14 -17 -19 21 0
-5 -12 14 -17 19 -21 0
-5 -12 14 -17 -19 -21 0
-5 -12 -14 -17 19 21 0
-5 -12 14 -17 19 21 0
8 12 15 17 20 21 0
-8 12 15 17 20 21 0
8 -12 -15 17 20 21 0
8 12 -15 17 20 21 0
-8 -12 15 17 20 21 0
-8 -12 -15 17 20 21 0
-8 12 15 -17 -20 -21 0
-8 12 15 -17 20 -21 0
8 12 15 17 -20 -21 0
8 12 15 -17 -20 -21 0
-8 12 15 17 20 -21 0
8 12 15 17 20 -21 0
8 12 -15 17 -20 21 0
8 -12 -15 17 -20 21 0
8 12 -15 -17 -20 -21 0
8 12 -15 17 -20 -21 0
8 -12 -15 -17 -20 21 0
8 -12 -15 -17 -20 -21 0
-8 -12 -15 -17 -20 -21 0
-8 -12 -15 -17 -20 21 0
-8 -12 15 -17 20 -21 0
-8 -12 15 -17 -20 -21 0
-8 -12 -15 -17 20 21 0
-8 -12 15 -17 20 21 0
6 9 10 13 14 15 0
-6 9 10 13 14 15 0
6 -9 -10 13 14 15 0
6 9 -10 13 14 15 0
-6 -9 10 13 14 15 0
-6 -9 -10 13 14 15 0
-6 9 10 -13 -14 -15 0
-6 9 10 -13 14 -15 0
6 9 10 13 -14 -15 0
6 9 10 -13 -14 -15 0
-6 9 10 13 14 -15 0
6 9 10 13 14 -15 0
6 9 -10 13 -14 15 0
6 -9 -10 13 -14 15 0
6 9 -10 -13 -14 -15 0
6 9 -10 13 -14 -15 0
6 -9 -10 -13 -14 15 0
6 -9 -10 -13 -14 -15 0
-6 -9 -10 -13 -14 -15 0
-6 -9 -10 -13 -14 15 0
-6 -9 10 -13 14 -15 0
-6 -9 10 -13 -14 -15 0
-6 -9 -10 -13 14 15 0
-6 -9 10 -13 14 15 0
6 9 10 18 19 20 0
-6 9 10 18 19 20 0
6 -9 -10 18 19 20 0
6 9 -10 18 19 20 0
-6 -9 10 18 19 20 0
-6 -9 -10 18 19 20 0
-6 9 10 -18 -19 -20 0
-6 9 10 -18 19 -20 0
6 9 10 18 -19 -20 0
6 9 10 -18 -19 -20 0
-6 9 10 18 19 -20 0
6 9 10 18 19 -20 0
6 9 -10 18 -19 20 0
6 -9 -10 18 -19 20 0
6 9 -10 -18 -19 -20 0
6 9 -10 18 -19 -20 0
6 -9 -10 -18 -19 20 0
6 -9 -10 -18 -19 -20 0
-6 -9 -10 -18 -19 -20 0
-6 -9 -10 -18 -19 20 0
-6 -9 10 -18 19 -20 0
-6 -9 10 -18 -19 -20 0
-6 -9 -10 -18 19 20 0
-6 -9 10 -18 19 20 0
6 13 14 18 19 21 0
-6 13 14 18 19 21 0
6 -13 -14 18 19 21 0
6 13 -14 18 19 21 0
-6 -13 14 18 19 21 0
-6 -13 -14 18 19 21 0
-6 13 14 -18 -19 -21 0
-6 13 14 -18 19 -21 0
6 13 14 18 -19 -21 0
6 13 14 -18 -19 -21 0
-6 13 14 18 19 -21 0
6 13 14 18 19 -21 0
6 13 -14 18 -19 21 0
6 -13 -14 18 -19 21 0
6 13 -14 -18 -19 -21 0
6 13 -14 18 -19 -21 0
6 -13 -14 -18 -19 21 0
6 -13 -14 -18 -19 -21 0
-6 -13 -14 -18 -19 -21 0
-6 -13 -14 -18 -19 21 0
-6 -13 14 -18 19 -21 0
-6 -13 14 -18 -19 -21 0
-6 -13 -14 -18 19 21 0
-6 -13 14 -18 19 21 0
9 13 15 18 20 21 0
-9 13 15 18 20 21 0
9 -13 -15 18 20 21 0
9 13 -15 18 20 21 0
-9 -13 15 18 20 21 0
-9 -13 -15 18 20 21 0
-9 13 15 -18 -20 -21 0
-9 13 15 -18 20 -21 0
9 13 15 18 -20 -21 0
9 13 15 -18 -20 -21 0
-9 13 15 18 20 -21 0
9 13 15 18 20 -21 0
9 13 -15 18 -20 21 0
9 -13 -15 18 -20 21 0
9 13 -15 -18 -20 -21 0
9 13 -15 18 -20 -21 0
9 -13 -15 -18 -20 21 0
9 -13 -15 -18 -20 -21 0
-9 -13 -15 -18 -20 -21 0
-9 -13 -15 -18 -20 21 0
-9 -13 15 -18 20 -21 0
-9 -13 15 -18 -20 -21 0
-9 -13 -15 -18 20 21 0
-9 -13 15 -18 20 21 0
10 14 15 19 20 21 0
-10 14 15 19 20 21 0
10 -14 -15 19 20 21 0
10 14 -15 19 20 21 0
-10 -14 15 19 20 21 0
-10 -14 -15 19 20 21 0
-10 14 15 -19 -20 -21 0
-10 14 15 -19 20 -21 0
10 14 15 19 -20 -21 0
10 14 15 -19 -20 -21 0
-10 14 15 19 20 -21 0
10 14 15 19 20 -21 0
10 14 -15 19 -20 21 0
10 -14 -15 19 -20 21 0
10 14 -15 -19 -20 -21 0
10 14 -15 19 -20 -21 0
10 -14 -15 -19 -20 21 0
10 -14 -15 -19 -20 -21 0
-10 -14 -15 -19 -20 -21 0
-10 -14 -15 -19 -20 21 0
-10 -14 15 -19 20 -21 0
-10 -14 15 -19 -20 -21 0
-10 -14 -15 -19 20 21 0
-10 -14 15 -19 20 21 0
